NiZn-N-C  DAC slab  MAGMOM from _TM_DATA
1.0
  14.80200000    0.00000000    0.00000000
  -7.40100000   12.81890803    0.00000000
   0.00000000    0.00000000   15.00000000
Ni Zn C N
1 1 62 6
direct
   0.54679000    0.56871000    0.14467000 Ni
   0.36271000    0.57464000    0.18546000 Zn
   0.99992000    0.99984000    0.11333000 C
   0.05548000    0.11096000    0.11333000 C
   0.16659000    0.99984000    0.11333000 C
   0.22215000    0.11096000    0.11333000 C
   0.33325000    0.99984000    0.11333000 C
   0.38881000    0.11096000    0.11333000 C
   0.49992000    0.99984000    0.11333000 C
   0.55548000    0.11096000    0.11333000 C
   0.66658000    0.99984000    0.11333000 C
   0.72215000    0.11096000    0.11333000 C
   0.83325000    0.99984000    0.11333000 C
   0.88881000    0.11096000    0.11333000 C
   0.99992000    0.16651000    0.11333000 C
   0.05548000    0.27762000    0.11333000 C
   0.16658000    0.16651000    0.11333000 C
   0.22215000    0.27762000    0.11333000 C
   0.33325000    0.16651000    0.11333000 C
   0.38881000    0.27762000    0.11333000 C
   0.49992000    0.16651000    0.11333000 C
   0.55548000    0.27762000    0.11333000 C
   0.66658000    0.16651000    0.11333000 C
   0.72215000    0.27762000    0.11333000 C
   0.83325000    0.16651000    0.11333000 C
   0.88881000    0.27762000    0.11333000 C
   0.99992000    0.33317000    0.11333000 C
   0.05548000    0.44429000    0.11333000 C
   0.16658000    0.33317000    0.11333000 C
   0.33325000    0.33317000    0.11333000 C
   0.49992000    0.33317000    0.11333000 C
   0.66658000    0.33317000    0.11333000 C
   0.72215000    0.44429000    0.11333000 C
   0.83325000    0.33317000    0.11333000 C
   0.88881000    0.44429000    0.11333000 C
   0.99992000    0.49984000    0.11333000 C
   0.05548000    0.61096000    0.11333000 C
   0.16659000    0.49984000    0.11333000 C
   0.22215000    0.61096000    0.11333000 C
   0.66658000    0.49984000    0.11333000 C
   0.72215000    0.61096000    0.11333000 C
   0.83325000    0.49984000    0.11333000 C
   0.88881000    0.61096000    0.11333000 C
   0.99992000    0.66651000    0.11333000 C
   0.05548000    0.77762000    0.11333000 C
   0.16658000    0.66651000    0.11333000 C
   0.22215000    0.77762000    0.11333000 C
   0.38881000    0.77762000    0.11333000 C
   0.55548000    0.77762000    0.11333000 C
   0.72215000    0.77762000    0.11333000 C
   0.83325000    0.66651000    0.11333000 C
   0.88881000    0.77762000    0.11333000 C
   0.99992000    0.83317000    0.11333000 C
   0.05548000    0.94429000    0.11333000 C
   0.16658000    0.83317000    0.11333000 C
   0.22215000    0.94429000    0.11333000 C
   0.33325000    0.83317000    0.11333000 C
   0.38881000    0.94429000    0.11333000 C
   0.49992000    0.83317000    0.11333000 C
   0.55548000    0.94429000    0.11333000 C
   0.66658000    0.83317000    0.11333000 C
   0.72215000    0.94429000    0.11333000 C
   0.83325000    0.83317000    0.11333000 C
   0.88881000    0.94429000    0.11333000 C
   0.22215000    0.44429000    0.11333000 N
   0.38881000    0.44429000    0.11333000 N
   0.55548000    0.44429000    0.11333000 N
   0.33325000    0.66651000    0.11333000 N
   0.49992000    0.66651000    0.11333000 N
   0.66658000    0.66651000    0.11333000 N
