Synthetic NaCl protocol fixture
1.0
5.640000 0.000000 0.000000
0.000000 5.640000 0.000000
0.000000 0.000000 5.640000
Na Cl
1 1
Direct
0.000000 0.000000 0.000000 Na
0.500000 0.500000 0.500000 Cl
